networks/zoo_74_533/zoo_74_533-lower.txt
Number of groups: 37
Flow 1: {1 7 0} {7 44 0} 
Flow 2: {1 31 0} {31 22 0} {22 21 0} {21 58 0} 
Flow 3: {31 26 0} {26 24 0} {24 61 0} 
Flow 4: {7 25 0} {25 62 0} 
Flow 5: {26 63 0} 
Flow 6: {31 68 0} 
Flow 7: {31 35 0} {35 72 0} 
Flow 8: {2 7 0} Flow 9: {2 31 0} {31 10 0} {10 47 0} 
Flow 14: {31 29 0} {29 66 0} 
Flow 17: {31 2 0} {2 39 0} 
Flow 17: {3 31 0} Flow 18: {31 4 0} {4 41 0} 
Flow 19: {31 6 0} {6 43 0} 
Flow 20: {3 7 0} Flow 21: {31 8 0} {8 45 0} 
Flow 23: {31 11 0} {11 48 0} 
Flow 24: {35 13 0} {13 50 0} 
Flow 25: {8 14 0} {14 51 0} 
Flow 26: {26 20 0} {20 15 0} {15 52 0} 
Flow 27: {20 16 0} {16 53 0} 
Flow 29: {22 59 0} 
Flow 36: {22 37 0} {37 74 0} 
Flow 37: {5 7 0} {7 4 0} Flow 38: {7 6 0} Flow 40: {7 8 0} Flow 41: {7 10 0} Flow 42: {7 31 0} Flow 43: {7 35 0} Flow 45: {35 21 0} Flow 46: {7 22 0} Flow 47: {25 24 0} Flow 49: {25 26 0} Flow 50: {7 29 0} Flow 53: {35 37 0} Flow 54: {6 31 0} Flow 56: {6 7 0} Flow 73: {7 1 0} {1 38 0} 
Flow 74: {7 2 0} Flow 82: {25 20 0} Flow 84: {31 18 0} {18 55 0} 
Flow 85: {25 19 0} {19 56 0} 
Flow 86: {20 57 0} 
Flow 92: {25 27 0} {27 64 0} 
Flow 95: {22 33 0} {33 70 0} 
Flow 96: {10 34 0} {34 71 0} 
Flow 98: {35 36 0} {36 73 0} 
Flow 100: {8 7 0} Flow 105: {8 35 0} Flow 109: {8 31 0} Flow 114: {9 7 0} Flow 117: {9 31 0} Flow 120: {10 7 0} Flow 125: {10 31 0} Flow 126: {10 35 0} Flow 142: {11 31 0} {31 1 0} Flow 146: {31 7 0} Flow 154: {26 19 0} Flow 161: {26 27 0} Flow 165: {31 34 0} Flow 167: {22 36 0} Flow 169: {12 35 0} {35 7 0} Flow 170: {35 31 0} Flow 171: {13 35 0} Flow 175: {35 8 0} Flow 176: {35 10 0} Flow 180: {35 22 0} Flow 181: {35 25 0} Flow 188: {14 8 0} Flow 207: {15 20 0} {20 25 0} {25 7 0} Flow 212: {25 35 0} Flow 214: {20 24 0} Flow 216: {20 26 0} Flow 218: {26 31 0} Flow 221: {16 20 0} Flow 236: {17 25 0} Flow 237: {18 31 0} Flow 252: {19 25 0} Flow 258: {19 26 0} Flow 265: {19 24 0} Flow 281: {21 35 0} Flow 289: {21 22 0} Flow 297: {22 7 0} Flow 299: {7 3 0} {3 40 0} 
Flow 304: {7 9 0} {9 46 0} 
Flow 306: {22 31 0} Flow 307: {35 12 0} {12 49 0} 
Flow 307: {22 35 0} Flow 316: {22 23 0} {23 60 0} 
Flow 323: {33 32 0} {32 69 0} 
Flow 329: {23 22 0} Flow 330: {23 35 0} Flow 338: {24 25 0} Flow 345: {24 26 0} Flow 348: {24 20 0} Flow 351: {24 19 0} Flow 392: {31 3 0} Flow 395: {26 25 0} Flow 397: {31 9 0} Flow 410: {35 23 0} Flow 416: {31 32 0} Flow 422: {27 25 0} Flow 425: {27 26 0} Flow 428: {29 7 0} Flow 434: {29 31 0} Flow 449: {7 5 0} {5 42 0} 
Flow 461: {25 17 0} {17 54 0} 
Flow 472: {21 28 0} {28 65 0} 
Flow 474: {31 30 0} {30 67 0} 
Flow 481: {32 31 0} Flow 485: {33 22 0} Flow 487: {34 10 0} Flow 489: {34 31 0} Flow 523: {36 22 0} Flow 525: {37 22 0} Flow 526: {37 35 0} Time taken running everything: 1 seconds
