networks/zoo_74_533/zoo_74_533-lower.sol
<?xml version = "1.0" encoding="UTF-8" standalone="yes"?>
<CPLEXSolution version="1.2">
 <header
   problemName="networks/zoo_74_533/zoo_74_533-lower.lp"
   solutionName="incumbent"
   solutionIndex="-1"
   objectiveValue="37"
   solutionTypeValue="3"
   solutionTypeString="primal"
   solutionStatusValue="101"
   solutionStatusString="integer optimal solution"
   solutionMethodString="mip"
   primalFeasible="1"
   dualFeasible="1"
   MIPNodes="0"
   MIPIterations="0"
   writeLevel="3"/>
 <quality
   epInt="1.0000000000000001e-05"
   epRHS="9.9999999999999995e-07"
   maxIntInfeas="0"
   maxPrimalInfeas="0"
   maxX="1"
   maxSlack="1"/>
 <variables>
  <variable name="Y(1,7)" index="6" value="1"/>
  <variable name="Y(2,21)" index="94" value="1"/>
  <variable name="Y(3,24)" index="171" value="1"/>
  <variable name="Y(4,25)" index="246" value="1"/>
  <variable name="Y(5,26)" index="321" value="1"/>
  <variable name="Y(6,31)" index="400" value="1"/>
  <variable name="Y(7,35)" index="478" value="1"/>
  <variable name="Y(9,10)" index="601" value="1"/>
  <variable name="Y(14,29)" index="990" value="1"/>
  <variable name="Y(17,2)" index="1185" value="1"/>
  <variable name="Y(18,4)" index="1261" value="1"/>
  <variable name="Y(19,6)" index="1337" value="1"/>
  <variable name="Y(21,8)" index="1487" value="1"/>
  <variable name="Y(23,11)" index="1638" value="1"/>
  <variable name="Y(24,13)" index="1714" value="1"/>
  <variable name="Y(25,14)" index="1789" value="1"/>
  <variable name="Y(26,15)" index="1864" value="1"/>
  <variable name="Y(27,16)" index="1939" value="1"/>
  <variable name="Y(29,22)" index="2093" value="1"/>
  <variable name="Y(36,37)" index="2626" value="1"/>
  <variable name="Y(73,1)" index="5328" value="1"/>
  <variable name="Y(84,18)" index="6159" value="1"/>
  <variable name="Y(85,19)" index="6234" value="1"/>
  <variable name="Y(86,20)" index="6309" value="1"/>
  <variable name="Y(92,27)" index="6760" value="1"/>
  <variable name="Y(95,33)" index="6988" value="1"/>
  <variable name="Y(96,34)" index="7063" value="1"/>
  <variable name="Y(98,36)" index="7213" value="1"/>
  <variable name="Y(299,3)" index="22054" value="1"/>
  <variable name="Y(304,9)" index="22430" value="1"/>
  <variable name="Y(307,12)" index="22655" value="1"/>
  <variable name="Y(316,23)" index="23332" value="1"/>
  <variable name="Y(323,32)" index="23859" value="1"/>
  <variable name="Y(449,5)" index="33156" value="1"/>
  <variable name="Y(461,17)" index="34056" value="1"/>
  <variable name="Y(472,28)" index="34881" value="1"/>
  <variable name="Y(474,30)" index="35031" value="1"/>
  <variable name="X(1,7,1)" index="39442" value="1"/>
  <variable name="X(1,31,2)" index="39976" value="1"/>
  <variable name="X(1,38,73)" index="40580" value="1"/>
  <variable name="X(2,7,8)" index="41048" value="1"/>
  <variable name="X(2,31,9)" index="41582" value="1"/>
  <variable name="X(2,39,17)" index="42123" value="1"/>
  <variable name="X(3,7,20)" index="42659" value="1"/>
  <variable name="X(3,31,17)" index="43189" value="1"/>
  <variable name="X(3,40,299)" index="44004" value="1"/>
  <variable name="X(4,41,18)" index="44256" value="1"/>
  <variable name="X(5,7,37)" index="44808" value="1"/>
  <variable name="X(5,42,449)" index="45753" value="1"/>
  <variable name="X(6,7,56)" index="45893" value="1"/>
  <variable name="X(6,31,54)" index="46424" value="1"/>
  <variable name="X(6,43,19)" index="46922" value="1"/>
  <variable name="X(7,1,73)" index="47509" value="1"/>
  <variable name="X(7,2,74)" index="48043" value="1"/>
  <variable name="X(7,3,299)" index="48801" value="1"/>
  <variable name="X(7,4,37)" index="49072" value="1"/>
  <variable name="X(7,5,449)" index="50017" value="1"/>
  <variable name="X(7,6,38)" index="50139" value="1"/>
  <variable name="X(7,8,40)" index="50674" value="1"/>
  <variable name="X(7,9,304)" index="51471" value="1"/>
  <variable name="X(7,10,41)" index="51741" value="1"/>
  <variable name="X(7,22,46)" index="52279" value="1"/>
  <variable name="X(7,25,4)" index="52770" value="1"/>
  <variable name="X(7,29,50)" index="53349" value="1"/>
  <variable name="X(7,31,42)" index="53874" value="1"/>
  <variable name="X(7,35,43)" index="54408" value="1"/>
  <variable name="X(7,44,1)" index="54899" value="1"/>
  <variable name="X(8,7,100)" index="55531" value="1"/>
  <variable name="X(8,14,25)" index="55989" value="1"/>
  <variable name="X(8,31,109)" index="56606" value="1"/>
  <variable name="X(8,35,105)" index="57135" value="1"/>
  <variable name="X(8,45,21)" index="57584" value="1"/>
  <variable name="X(9,7,114)" index="58210" value="1"/>
  <variable name="X(9,31,117)" index="58746" value="1"/>
  <variable name="X(9,46,304)" index="59466" value="1"/>
  <variable name="X(10,7,120)" index="59815" value="1"/>
  <variable name="X(10,31,125)" index="60353" value="1"/>
  <variable name="X(10,34,96)" index="60857" value="1"/>
  <variable name="X(10,35,126)" index="61420" value="1"/>
  <variable name="X(10,47,9)" index="61836" value="1"/>
  <variable name="X(11,31,142)" index="62502" value="1"/>
  <variable name="X(11,48,23)" index="62916" value="1"/>
  <variable name="X(12,35,169)" index="63595" value="1"/>
  <variable name="X(12,49,307)" index="64266" value="1"/>
  <variable name="X(13,35,171)" index="64663" value="1"/>
  <variable name="X(13,50,24)" index="65049" value="1"/>
  <variable name="X(14,8,188)" index="65746" value="1"/>
  <variable name="X(14,51,25)" index="66116" value="1"/>
  <variable name="X(15,20,207)" index="66831" value="1"/>
  <variable name="X(15,52,26)" index="67183" value="1"/>
  <variable name="X(16,20,221)" index="67911" value="1"/>
  <variable name="X(16,53,27)" index="68250" value="1"/>
  <variable name="X(17,25,236)" index="68992" value="1"/>
  <variable name="X(17,54,461)" index="69750" value="1"/>
  <variable name="X(18,31,237)" index="70059" value="1"/>
  <variable name="X(18,55,84)" index="70439" value="1"/>
  <variable name="X(19,24,265)" index="71153" value="1"/>
  <variable name="X(19,25,252)" index="71673" value="1"/>
  <variable name="X(19,26,258)" index="72212" value="1"/>
  <variable name="X(19,56,85)" index="72572" value="1"/>
  <variable name="X(20,15,26)" index="73046" value="1"/>
  <variable name="X(20,16,27)" index="73580" value="1"/>
  <variable name="X(20,24,214)" index="74300" value="1"/>
  <variable name="X(20,25,207)" index="74826" value="1"/>
  <variable name="X(20,26,216)" index="75368" value="1"/>
  <variable name="X(20,57,86)" index="75771" value="1"/>
  <variable name="X(21,22,289)" index="76507" value="1"/>
  <variable name="X(21,28,472)" index="77223" value="1"/>
  <variable name="X(21,35,281)" index="77565" value="1"/>
  <variable name="X(21,58,2)" index="77819" value="1"/>
  <variable name="X(22,7,297)" index="78647" value="1"/>
  <variable name="X(22,21,2)" index="78885" value="1"/>
  <variable name="X(22,23,316)" index="79732" value="1"/>
  <variable name="X(22,31,306)" index="80255" value="1"/>
  <variable name="X(22,33,95)" index="80577" value="1"/>
  <variable name="X(22,35,307)" index="81322" value="1"/>
  <variable name="X(22,36,167)" index="81715" value="1"/>
  <variable name="X(22,37,36)" index="82117" value="1"/>
  <variable name="X(22,59,29)" index="82643" value="1"/>
  <variable name="X(23,22,329)" index="83476" value="1"/>
  <variable name="X(23,35,330)" index="84010" value="1"/>
  <variable name="X(23,60,316)" index="84529" value="1"/>
  <variable name="X(24,19,351)" index="85097" value="1"/>
  <variable name="X(24,20,348)" index="85627" value="1"/>
  <variable name="X(24,25,338)" index="86150" value="1"/>
  <variable name="X(24,26,345)" index="86690" value="1"/>
  <variable name="X(24,61,3)" index="86881" value="1"/>
  <variable name="X(25,7,207)" index="87618" value="1"/>
  <variable name="X(25,17,461)" index="88405" value="1"/>
  <variable name="X(25,19,85)" index="88562" value="1"/>
  <variable name="X(25,20,82)" index="89092" value="1"/>
  <variable name="X(25,24,47)" index="89590" value="1"/>
  <variable name="X(25,26,49)" index="90125" value="1"/>
  <variable name="X(25,27,92)" index="90701" value="1"/>
  <variable name="X(25,35,212)" index="91354" value="1"/>
  <variable name="X(25,62,4)" index="91679" value="1"/>
  <variable name="X(26,19,154)" index="92362" value="1"/>
  <variable name="X(26,20,26)" index="92767" value="1"/>
  <variable name="X(26,24,3)" index="93277" value="1"/>
  <variable name="X(26,25,395)" index="94202" value="1"/>
  <variable name="X(26,27,161)" index="94501" value="1"/>
  <variable name="X(26,31,218)" index="95091" value="1"/>
  <variable name="X(26,63,5)" index="95411" value="1"/>
  <variable name="X(27,25,422)" index="96361" value="1"/>
  <variable name="X(27,26,425)" index="96897" value="1"/>
  <variable name="X(27,64,92)" index="97097" value="1"/>
  <variable name="X(28,65,472)" index="98010" value="1"/>
  <variable name="X(29,7,428)" index="98499" value="1"/>
  <variable name="X(29,31,434)" index="99038" value="1"/>
  <variable name="X(29,66,14)" index="99151" value="1"/>
  <variable name="X(30,67,474)" index="100144" value="1"/>
  <variable name="X(31,1,142)" index="100345" value="1"/>
  <variable name="X(31,2,17)" index="100753" value="1"/>
  <variable name="X(31,3,392)" index="101661" value="1"/>
  <variable name="X(31,4,18)" index="101820" value="1"/>
  <variable name="X(31,6,19)" index="102354" value="1"/>
  <variable name="X(31,7,146)" index="103014" value="1"/>
  <variable name="X(31,8,21)" index="103422" value="1"/>
  <variable name="X(31,9,397)" index="104331" value="1"/>
  <variable name="X(31,10,9)" index="104476" value="1"/>
  <variable name="X(31,11,23)" index="105023" value="1"/>
  <variable name="X(31,18,84)" index="105617" value="1"/>
  <variable name="X(31,22,2)" index="106068" value="1"/>
  <variable name="X(31,26,3)" index="106602" value="1"/>
  <variable name="X(31,29,14)" index="107146" value="1"/>
  <variable name="X(31,30,474)" index="108139" value="1"/>
  <variable name="X(31,32,416)" index="108614" value="1"/>
  <variable name="X(31,34,165)" index="108896" value="1"/>
  <variable name="X(31,35,7)" index="109271" value="1"/>
  <variable name="X(31,68,6)" index="109803" value="1"/>
  <variable name="X(32,31,481)" index="110811" value="1"/>
  <variable name="X(32,69,323)" index="111186" value="1"/>
  <variable name="X(33,22,485)" index="111881" value="1"/>
  <variable name="X(33,32,323)" index="112252" value="1"/>
  <variable name="X(33,70,95)" index="112557" value="1"/>
  <variable name="X(34,10,487)" index="113482" value="1"/>
  <variable name="X(34,31,489)" index="114017" value="1"/>
  <variable name="X(34,71,96)" index="114157" value="1"/>
  <variable name="X(35,7,169)" index="114763" value="1"/>
  <variable name="X(35,8,175)" index="115302" value="1"/>
  <variable name="X(35,10,176)" index="115836" value="1"/>
  <variable name="X(35,12,307)" index="116500" value="1"/>
  <variable name="X(35,13,24)" index="116750" value="1"/>
  <variable name="X(35,21,45)" index="117304" value="1"/>
  <variable name="X(35,22,180)" index="117972" value="1"/>
  <variable name="X(35,23,410)" index="118735" value="1"/>
  <variable name="X(35,25,181)" index="119039" value="1"/>
  <variable name="X(35,31,170)" index="119561" value="1"/>
  <variable name="X(35,36,98)" index="120022" value="1"/>
  <variable name="X(35,37,53)" index="120510" value="1"/>
  <variable name="X(35,72,7)" index="120997" value="1"/>
  <variable name="X(36,22,523)" index="122046" value="1"/>
  <variable name="X(36,73,98)" index="122154" value="1"/>
  <variable name="X(37,22,525)" index="123114" value="1"/>
  <variable name="X(37,35,526)" index="123648" value="1"/>
  <variable name="X(37,74,36)" index="123691" value="1"/>
 </variables>
</CPLEXSolution>
